5 5
4 52 0 4 1 47 2 21 3 56
4 66 2 59 3 7 0 49 1 16
4 17 1 84 3 87 0 98 2 75
1 34 4 33 2 26 0 66 3 63
0 87 2 41 4 86 3 58 1 98
-1
0 2 5
0 1 3 4 5
0 3 4 5
0 2 3 4 5
0 1 4 5
-2
75 285
82 191 193 226
231 294 534
84 104 218 313
121 338 432

414 10
20 1 18 13 8
15 11 2 24 9
21 17 3 6 14
12 23 19 7 4
10 16 0 22 5
